objective value:                                   -3
t_n_12                                              1 	(obj:-1)
t_n_1291                                            1 	(obj:-1)
t_n_1727                                            1 	(obj:-1)
